\ENCODING=ISO-8859-1
\Problem name: ilog.cplex

Maximize
 obj: 879 x(0)#0 + 686 x(1)#1 + 547 x(2)#2 + 407 x(3)#3 + 623 x(4)#4
      + 884 x(5)#5 + 882 x(6)#6 + 679 x(7)#7 + 814 x(8)#8 + 673 x(9)#9
      + 1156 x(10)#10 + 654 x(11)#11 + 606 x(12)#12 + 940 x(13)#13
      + 490 x(14)#14 + 733 x(15)#15 + 910 x(16)#16 + 1164 x(17)#17
      + 483 x(18)#18 + 989 x(19)#19 + 934 x(20)#20 + 641 x(21)#21
      + 1148 x(22)#22 + 1024 x(23)#23 + 1136 x(24)#24 + 856 x(25)#25
      + 702 x(26)#26 + 484 x(27)#27 + 1001 x(28)#28 + 749 x(29)#29
      + 881 x(30)#30 + 861 x(31)#31 + 967 x(32)#32 + 1033 x(33)#33
      + 928 x(34)#34 + 582 x(35)#35 + 656 x(36)#36 + 971 x(37)#37
      + 607 x(38)#38 + 372 x(39)#39 + 685 x(40)#40 + 553 x(41)#41
      + 714 x(42)#42 + 866 x(43)#43 + 936 x(44)#44 + 1160 x(45)#45
      + 600 x(46)#46 + 661 x(47)#47 + 759 x(48)#48 + 823 x(49)#49
      + 688 x(50)#50 + 951 x(51)#51 + 634 x(52)#52 + 858 x(53)#53
      + 992 x(54)#54 + 789 x(55)#55 + 807 x(56)#56 + 922 x(57)#57
      + 838 x(58)#58 + 662 x(59)#59 + 682 x(60)#60 + 790 x(61)#61
      + 360 x(62)#62 + 521 x(63)#63 + 850 x(64)#64 + 787 x(65)#65
      + 903 x(66)#66 + 571 x(67)#67 + 739 x(68)#68 + 905 x(69)#69
      + 946 x(70)#70 + 669 x(71)#71 + 981 x(72)#72 + 747 x(73)#73
      + 950 x(74)#74 + 614 x(75)#75 + 786 x(76)#76 + 881 x(77)#77
      + 854 x(78)#78 + 883 x(79)#79 + 581 x(80)#80 + 488 x(81)#81
      + 1014 x(82)#82 + 1072 x(83)#83 + 567 x(84)#84 + 586 x(85)#85
      + 557 x(86)#86 + 600 x(87)#87 + 1027 x(88)#88 + 851 x(89)#89
      + 530 x(90)#90 + 961 x(91)#91 + 758 x(92)#92 + 346 x(93)#93
      + 626 x(94)#94 + 682 x(95)#95 + 546 x(96)#96 + 879 x(97)#97
      + 832 x(98)#98 + 708 x(99)#99
Subject To
 c1: 859 x(0)#0 + 636 x(1)#1 + 338 x(2)#2 + 240 x(3)#3 + 511 x(4)#4 + 87 x(5)#5
     + 829 x(6)#6 + 70 x(7)#7 + 593 x(8)#8 + 711 x(9)#9 + 681 x(10)#10
     + 293 x(11)#11 + 620 x(12)#12 + 646 x(13)#13 + 644 x(14)#14 + 327 x(15)#15
     + 537 x(16)#16 + 369 x(17)#17 + 650 x(18)#18 + 369 x(19)#19 + 506 x(20)#20
     + 598 x(21)#21 + 139 x(22)#22 + 322 x(23)#23 + 833 x(24)#24 + 812 x(25)#25
     + 414 x(26)#26 + 131 x(27)#27 + 846 x(28)#28 + 224 x(29)#29 + 440 x(30)#30
     + 258 x(31)#31 + 179 x(32)#32 + 380 x(33)#33 + 698 x(34)#34 + 103 x(35)#35
     + 720 x(36)#36 + 717 x(37)#37 + 62 x(38)#38 + 235 x(39)#39 + 773 x(40)#40
     + 64 x(41)#41 + 735 x(42)#42 + 803 x(43)#43 + 595 x(44)#44 + 308 x(45)#45
     + 499 x(46)#46 + 672 x(47)#47 + 713 x(48)#48 + 78 x(49)#49 + 570 x(50)#50
     + 636 x(51)#51 + 968 x(52)#52 + 47 x(53)#53 + 795 x(54)#54 + 589 x(55)#55
     + 125 x(56)#56 + 317 x(57)#57 + 195 x(58)#58 + 761 x(59)#59 + 314 x(60)#60
     + 108 x(61)#61 + 13 x(62)#62 + 141 x(63)#63 + 531 x(64)#64 + 667 x(65)#65
     + 984 x(66)#66 + 557 x(67)#67 + 1000 x(68)#68 + 934 x(69)#69
     + 843 x(70)#70 + 706 x(71)#71 + 552 x(72)#72 + 967 x(73)#73 + 545 x(74)#74
     + 839 x(75)#75 + 496 x(76)#76 + 723 x(77)#77 + 117 x(78)#78 + 770 x(79)#79
     + 390 x(80)#80 + 966 x(81)#81 + 428 x(82)#82 + 595 x(83)#83 + 641 x(84)#84
     + 150 x(85)#85 + 452 x(86)#86 + 278 x(87)#87 + 804 x(88)#88 + 560 x(89)#89
     + 176 x(90)#90 + 776 x(91)#91 + 966 x(92)#92 + 357 x(93)#93 + 953 x(94)#94
     + 563 x(95)#95 + 395 x(96)#96 + 857 x(97)#97 + 292 x(98)#98 + 378 x(99)#99
     <= 12914
 c2: 384 x(0)#0 + 18 x(1)#1 + 54 x(2)#2 + 579 x(3)#3 + 393 x(4)#4 + 459 x(5)#5
     + 952 x(6)#6 + 272 x(7)#7 + 939 x(8)#8 + 603 x(9)#9 + 489 x(10)#10
     + 867 x(11)#11 + 592 x(12)#12 + 489 x(13)#13 + 312 x(14)#14 + 557 x(15)#15
     + 374 x(16)#16 + 860 x(17)#17 + 95 x(18)#18 + 829 x(19)#19 + 262 x(20)#20
     + 292 x(21)#21 + 878 x(22)#22 + 504 x(23)#23 + 692 x(24)#24 + 738 x(25)#25
     + 276 x(26)#26 + 734 x(27)#27 + 340 x(28)#28 + 576 x(29)#29 + 238 x(30)#30
     + 950 x(31)#31 + 536 x(32)#32 + 824 x(33)#33 + 550 x(34)#34 + 407 x(35)#35
     + 849 x(36)#36 + 541 x(37)#37 + 82 x(38)#38 + 117 x(39)#39 + 11 x(40)#40
     + 4 x(41)#41 + 425 x(42)#42 + 901 x(43)#43 + 590 x(44)#44 + 905 x(45)#45
     + 206 x(46)#46 + 210 x(47)#47 + 181 x(48)#48 + 704 x(49)#49 + 218 x(50)#50
     + 139 x(51)#51 + 137 x(52)#52 + 298 x(53)#53 + 107 x(54)#54 + 578 x(55)#55
     + 12 x(56)#56 + 900 x(57)#57 + 974 x(58)#58 + 85 x(59)#59 + 413 x(60)#60
     + 942 x(61)#61 + 870 x(62)#62 + 962 x(63)#63 + 518 x(64)#64 + 625 x(65)#65
     + 930 x(66)#66 + 660 x(67)#67 + 951 x(68)#68 + 781 x(69)#69 + 424 x(70)#70
     + 393 x(71)#71 + 664 x(72)#72 + 397 x(73)#73 + 636 x(74)#74 + 263 x(75)#75
     + 744 x(76)#76 + 964 x(77)#77 + 381 x(78)#78 + 10 x(79)#79 + 481 x(80)#80
     + 163 x(81)#81 + 758 x(82)#82 + 559 x(83)#83 + 392 x(84)#84 + 626 x(85)#85
     + 32 x(86)#86 + 701 x(87)#87 + 845 x(88)#88 + 834 x(89)#89 + 551 x(90)#90
     + 968 x(91)#91 + 983 x(92)#92 + 572 x(93)#93 + 756 x(94)#94 + 173 x(95)#95
     + 636 x(96)#96 + 804 x(97)#97 + 772 x(98)#98 + 268 x(99)#99 <= 13123
 c3: 283 x(0)#0 + 707 x(1)#1 + 130 x(2)#2 + 257 x(3)#3 + 787 x(4)#4
     + 831 x(5)#5 + 113 x(6)#6 + 265 x(7)#7 + 199 x(8)#8 + 450 x(9)#9
     + 775 x(10)#10 + 253 x(11)#11 + 856 x(12)#12 + 61 x(13)#13 + 395 x(14)#14
     + 825 x(15)#15 + 768 x(16)#16 + 819 x(17)#17 + 717 x(18)#18 + 953 x(19)#19
     + 512 x(20)#20 + 182 x(21)#21 + 719 x(22)#22 + 655 x(23)#23 + 969 x(24)#24
     + 650 x(25)#25 + 895 x(26)#26 + 415 x(27)#27 + 754 x(28)#28 + 394 x(29)#29
     + 626 x(30)#30 + 382 x(31)#31 + 750 x(32)#32 + 110 x(33)#33 + 104 x(34)#34
     + 638 x(35)#35 + 203 x(36)#36 + 306 x(37)#37 + 289 x(38)#38 + 444 x(39)#39
     + 115 x(40)#40 + 877 x(41)#41 + 915 x(42)#42 + 76 x(43)#43 + 58 x(44)#44
     + 870 x(45)#45 + 552 x(46)#46 + 969 x(47)#47 + 28 x(48)#48 + 686 x(49)#49
     + 514 x(50)#50 + 878 x(51)#51 + 571 x(52)#52 + 766 x(53)#53 + 630 x(54)#54
     + 410 x(55)#55 + 307 x(56)#56 + 783 x(57)#57 + 345 x(58)#58 + 592 x(59)#59
     + 743 x(60)#60 + 307 x(61)#61 + 485 x(62)#62 + 75 x(63)#63 + 504 x(64)#64
     + 47 x(65)#65 + 450 x(66)#66 + 537 x(67)#67 + 600 x(68)#68 + 629 x(69)#69
     + 341 x(70)#70 + 254 x(71)#71 + 970 x(72)#72 + 251 x(73)#73 + 385 x(74)#74
     + 149 x(75)#75 + 240 x(76)#76 + 941 x(77)#77 + 863 x(78)#78 + 639 x(79)#79
     + 249 x(80)#80 + 531 x(81)#81 + 671 x(82)#82 + 700 x(83)#83 + 145 x(84)#84
     + 218 x(85)#85 + 484 x(86)#86 + 186 x(87)#87 + 718 x(88)#88 + 148 x(89)#89
     + 521 x(90)#90 + 680 x(91)#91 + 571 x(92)#92 + 335 x(93)#93 + 390 x(94)#94
     + 105 x(95)#95 + 15 x(96)#96 + 606 x(97)#97 + 559 x(98)#98 + 561 x(99)#99
     <= 12297
 c4: 372 x(0)#0 + 329 x(1)#1 + 187 x(2)#2 + 377 x(3)#3 + 495 x(4)#4
     + 381 x(5)#5 + 664 x(6)#6 + 986 x(7)#7 + 489 x(8)#8 + 507 x(9)#9
     + 935 x(10)#10 + 940 x(11)#11 + 297 x(12)#12 + 921 x(13)#13 + 27 x(14)#14
     + 875 x(15)#15 + 360 x(16)#16 + 588 x(17)#17 + 385 x(18)#18 + 86 x(19)#19
     + 474 x(20)#20 + 416 x(21)#21 + 662 x(22)#22 + 960 x(23)#23 + 911 x(24)#24
     + 149 x(25)#25 + 283 x(26)#26 + 690 x(27)#27 + 542 x(28)#28 + 834 x(29)#29
     + 185 x(30)#30 + 86 x(31)#31 + 76 x(32)#32 + 974 x(33)#33 + 420 x(34)#34
     + 644 x(35)#35 + 503 x(36)#36 + 570 x(37)#37 + 594 x(38)#38 + 403 x(39)#39
     + 62 x(40)#40 + 680 x(41)#41 + 120 x(42)#42 + 966 x(43)#43 + 284 x(44)#44
     + 690 x(45)#45 + 16 x(46)#46 + 4 x(47)#47 + 208 x(48)#48 + 570 x(49)#49
     + 716 x(50)#50 + 974 x(51)#51 + 166 x(52)#52 + 757 x(53)#53 + 442 x(54)#54
     + 550 x(55)#55 + 835 x(56)#56 + 302 x(57)#57 + 621 x(58)#58 + 500 x(59)#59
     + 354 x(60)#60 + 580 x(61)#61 + 207 x(62)#62 + 632 x(63)#63 + 138 x(64)#64
     + 83 x(65)#65 + 680 x(66)#66 + 879 x(67)#67 + 60 x(68)#68 + 851 x(69)#69
     + 301 x(70)#70 + 822 x(71)#71 + 78 x(72)#72 + 219 x(73)#73 + 977 x(74)#74
     + 199 x(75)#75 + 177 x(76)#76 + 931 x(77)#77 + 429 x(78)#78 + 686 x(79)#79
     + 81 x(80)#80 + 204 x(81)#81 + 839 x(82)#82 + 866 x(83)#83 + 98 x(84)#84
     + 601 x(85)#85 + 283 x(86)#86 + 644 x(87)#87 + 581 x(88)#88 + 226 x(89)#89
     + 604 x(90)#90 + 129 x(91)#91 + 278 x(92)#92 + 187 x(93)#93 + 97 x(94)#94
     + 952 x(95)#95 + 453 x(96)#96 + 289 x(97)#97 + 511 x(98)#98 + 826 x(99)#99
     <= 12018
 c5: 782 x(0)#0 + 288 x(1)#1 + 346 x(2)#2 + 204 x(3)#3 + 129 x(4)#4
     + 229 x(5)#5 + 44 x(6)#6 + 342 x(7)#7 + 424 x(8)#8 + 471 x(9)#9
     + 649 x(10)#10 + 897 x(11)#11 + 77 x(12)#12 + 716 x(13)#13 + 16 x(14)#14
     + 467 x(15)#15 + 199 x(16)#16 + 876 x(17)#17 + 42 x(18)#18 + 737 x(19)#19
     + 792 x(20)#20 + 768 x(21)#21 + 872 x(22)#22 + 393 x(23)#23 + 455 x(24)#24
     + 497 x(25)#25 + 382 x(26)#26 + 172 x(27)#27 + 550 x(28)#28 + 104 x(29)#29
     + 505 x(30)#30 + 686 x(31)#31 + 836 x(32)#32 + 441 x(33)#33 + 578 x(34)#34
     + 582 x(35)#35 + 440 x(36)#36 + 998 x(37)#37 + 599 x(38)#38 + 323 x(39)#39
     + 794 x(40)#40 + 164 x(41)#41 + 422 x(42)#42 + 917 x(43)#43 + 689 x(44)#44
     + 672 x(45)#45 + 97 x(46)#46 + 703 x(47)#47 + 876 x(48)#48 + 544 x(49)#49
     + 864 x(50)#50 + 398 x(51)#51 + 41 x(52)#52 + 353 x(53)#53 + 809 x(54)#54
     + 26 x(55)#55 + 279 x(56)#56 + 844 x(57)#57 + 24 x(58)#58 + 726 x(59)#59
     + 892 x(60)#60 + 919 x(61)#61 + 158 x(62)#62 + 577 x(63)#63 + 174 x(64)#64
     + 901 x(65)#65 + 739 x(66)#66 + 59 x(67)#67 + 402 x(68)#68 + 925 x(69)#69
     + 364 x(70)#70 + 223 x(71)#71 + 838 x(72)#72 + 131 x(73)#73 + 850 x(74)#74
     + 331 x(75)#75 + 815 x(76)#76 + 521 x(77)#77 + 64 x(78)#78 + 960 x(79)#79
     + 857 x(80)#80 + 59 x(81)#81 + 787 x(82)#82 + 801 x(83)#83 + 306 x(84)#84
     + 357 x(85)#85 + 775 x(86)#86 + 990 x(87)#87 + 694 x(88)#88 + 133 x(89)#89
     + 269 x(90)#90 + 885 x(91)#91 + 576 x(92)#92 + 7 x(93)#93 + 246 x(94)#94
     + 613 x(95)#95 + 765 x(96)#96 + 757 x(97)#97 + 398 x(98)#98 + 579 x(99)#99
     <= 12712
Bounds
 0 <= x(0)#0 <= 1
 0 <= x(1)#1 <= 1
 0 <= x(2)#2 <= 1
 0 <= x(3)#3 <= 1
 0 <= x(4)#4 <= 1
 0 <= x(5)#5 <= 1
 0 <= x(6)#6 <= 1
 0 <= x(7)#7 <= 1
 0 <= x(8)#8 <= 1
 0 <= x(9)#9 <= 1
 0 <= x(10)#10 <= 1
 0 <= x(11)#11 <= 1
 0 <= x(12)#12 <= 1
 0 <= x(13)#13 <= 1
 0 <= x(14)#14 <= 1
 0 <= x(15)#15 <= 1
 0 <= x(16)#16 <= 1
 0 <= x(17)#17 <= 1
 0 <= x(18)#18 <= 1
 0 <= x(19)#19 <= 1
 0 <= x(20)#20 <= 1
 0 <= x(21)#21 <= 1
 0 <= x(22)#22 <= 1
 0 <= x(23)#23 <= 1
 0 <= x(24)#24 <= 1
 0 <= x(25)#25 <= 1
 0 <= x(26)#26 <= 1
 0 <= x(27)#27 <= 1
 0 <= x(28)#28 <= 1
 0 <= x(29)#29 <= 1
 0 <= x(30)#30 <= 1
 0 <= x(31)#31 <= 1
 0 <= x(32)#32 <= 1
 0 <= x(33)#33 <= 1
 0 <= x(34)#34 <= 1
 0 <= x(35)#35 <= 1
 0 <= x(36)#36 <= 1
 0 <= x(37)#37 <= 1
 0 <= x(38)#38 <= 1
 0 <= x(39)#39 <= 1
 0 <= x(40)#40 <= 1
 0 <= x(41)#41 <= 1
 0 <= x(42)#42 <= 1
 0 <= x(43)#43 <= 1
 0 <= x(44)#44 <= 1
 0 <= x(45)#45 <= 1
 0 <= x(46)#46 <= 1
 0 <= x(47)#47 <= 1
 0 <= x(48)#48 <= 1
 0 <= x(49)#49 <= 1
 0 <= x(50)#50 <= 1
 0 <= x(51)#51 <= 1
 0 <= x(52)#52 <= 1
 0 <= x(53)#53 <= 1
 0 <= x(54)#54 <= 1
 0 <= x(55)#55 <= 1
 0 <= x(56)#56 <= 1
 0 <= x(57)#57 <= 1
 0 <= x(58)#58 <= 1
 0 <= x(59)#59 <= 1
 0 <= x(60)#60 <= 1
 0 <= x(61)#61 <= 1
 0 <= x(62)#62 <= 1
 0 <= x(63)#63 <= 1
 0 <= x(64)#64 <= 1
 0 <= x(65)#65 <= 1
 0 <= x(66)#66 <= 1
 0 <= x(67)#67 <= 1
 0 <= x(68)#68 <= 1
 0 <= x(69)#69 <= 1
 0 <= x(70)#70 <= 1
 0 <= x(71)#71 <= 1
 0 <= x(72)#72 <= 1
 0 <= x(73)#73 <= 1
 0 <= x(74)#74 <= 1
 0 <= x(75)#75 <= 1
 0 <= x(76)#76 <= 1
 0 <= x(77)#77 <= 1
 0 <= x(78)#78 <= 1
 0 <= x(79)#79 <= 1
 0 <= x(80)#80 <= 1
 0 <= x(81)#81 <= 1
 0 <= x(82)#82 <= 1
 0 <= x(83)#83 <= 1
 0 <= x(84)#84 <= 1
 0 <= x(85)#85 <= 1
 0 <= x(86)#86 <= 1
 0 <= x(87)#87 <= 1
 0 <= x(88)#88 <= 1
 0 <= x(89)#89 <= 1
 0 <= x(90)#90 <= 1
 0 <= x(91)#91 <= 1
 0 <= x(92)#92 <= 1
 0 <= x(93)#93 <= 1
 0 <= x(94)#94 <= 1
 0 <= x(95)#95 <= 1
 0 <= x(96)#96 <= 1
 0 <= x(97)#97 <= 1
 0 <= x(98)#98 <= 1
 0 <= x(99)#99 <= 1
Generals
 x(0)#0  x(1)#1  x(2)#2  x(3)#3  x(4)#4  x(5)#5  x(6)#6  x(7)#7  x(8)#8 
 x(9)#9  x(10)#10  x(11)#11  x(12)#12  x(13)#13  x(14)#14  x(15)#15  x(16)#16 
 x(17)#17  x(18)#18  x(19)#19  x(20)#20  x(21)#21  x(22)#22  x(23)#23 
 x(24)#24  x(25)#25  x(26)#26  x(27)#27  x(28)#28  x(29)#29  x(30)#30 
 x(31)#31  x(32)#32  x(33)#33  x(34)#34  x(35)#35  x(36)#36  x(37)#37 
 x(38)#38  x(39)#39  x(40)#40  x(41)#41  x(42)#42  x(43)#43  x(44)#44 
 x(45)#45  x(46)#46  x(47)#47  x(48)#48  x(49)#49  x(50)#50  x(51)#51 
 x(52)#52  x(53)#53  x(54)#54  x(55)#55  x(56)#56  x(57)#57  x(58)#58 
 x(59)#59  x(60)#60  x(61)#61  x(62)#62  x(63)#63  x(64)#64  x(65)#65 
 x(66)#66  x(67)#67  x(68)#68  x(69)#69  x(70)#70  x(71)#71  x(72)#72 
 x(73)#73  x(74)#74  x(75)#75  x(76)#76  x(77)#77  x(78)#78  x(79)#79 
 x(80)#80  x(81)#81  x(82)#82  x(83)#83  x(84)#84  x(85)#85  x(86)#86 
 x(87)#87  x(88)#88  x(89)#89  x(90)#90  x(91)#91  x(92)#92  x(93)#93 
 x(94)#94  x(95)#95  x(96)#96  x(97)#97  x(98)#98  x(99)#99 
End
